SystemName Graphite
SystemLabel Graphite

NumberOfAtoms   108
NumberOfSpecies 1

%block ChemicalSpeciesLabel
1  6   C-gga
%endblock ChemicalSpeciesLabel

PAO.BasisSize  SZ
PAO.EnergyShift  10 meV

%block PS.Lmax
C-gga   2
%endblock PS.Lmax

LatticeConstant 1.000000 Ang
%block LatticeVectors
 7.39200  0.00000  0.00000
-3.69600  6.40166  0.00000
 0.00000  0.00000 20.40000
%endblock LatticeVectors

AtomicCoordinatesFormat Ang
%block AtomicCoordinatesAndAtomicSpecies
1.2280122800000 0.7089790407000 3.3480000000000 1
1.2280122800000 0.7089790407000 10.1480000000000 1
1.2280122800000 0.7089790407000 16.9480000000000 1
-0.0039877133000 2.8428656241000 3.3480000000000 1
-0.0039877133000 2.8428656241000 10.1480000000000 1
-0.0039877133000 2.8428656241000 16.9480000000000 1
-1.2359877066000 4.9767522075000 3.3480000000000 1
-1.2359877066000 4.9767522075000 10.1480000000000 1
-1.2359877066000 4.9767522075000 16.9480000000000 1
3.6920122666000 0.7089790407000 3.3480000000000 1
3.6920122666000 0.7089790407000 10.1480000000000 1
3.6920122666000 0.7089790407000 16.9480000000000 1
2.4600122733000 2.8428656241000 3.3480000000000 1
2.4600122733000 2.8428656241000 10.1480000000000 1
2.4600122733000 2.8428656241000 16.9480000000000 1
1.2280122800000 4.9767522075000 3.3480000000000 1
1.2280122800000 4.9767522075000 10.1480000000000 1
1.2280122800000 4.9767522075000 16.9480000000000 1
6.1560122532000 0.7089790407000 3.3480000000000 1
6.1560122532000 0.7089790407000 10.1480000000000 1
6.1560122532000 0.7089790407000 16.9480000000000 1
4.9240122599000 2.8428656241000 3.3480000000000 1
4.9240122599000 2.8428656241000 10.1480000000000 1
4.9240122599000 2.8428656241000 16.9480000000000 1
3.6920122666000 4.9767522075000 3.3480000000000 1
3.6920122666000 4.9767522075000 10.1480000000000 1
3.6920122666000 4.9767522075000 16.9480000000000 1
0.0000000000000 0.0000000000000 3.3480000000000 1
0.0000000000000 0.0000000000000 10.1480000000000 1
0.0000000000000 0.0000000000000 16.9480000000000 1
-1.2319999933000 2.1338865834000 3.3480000000000 1
-1.2319999933000 2.1338865834000 10.1480000000000 1
-1.2319999933000 2.1338865834000 16.9480000000000 1
-2.4639999866000 4.2677731668000 3.3480000000000 1
-2.4639999866000 4.2677731668000 10.1480000000000 1
-2.4639999866000 4.2677731668000 16.9480000000000 1
2.4639999866000 0.0000000000000 3.3480000000000 1
2.4639999866000 0.0000000000000 10.1480000000000 1
2.4639999866000 0.0000000000000 16.9480000000000 1
1.2319999933000 2.1338865834000 3.3480000000000 1
1.2319999933000 2.1338865834000 10.1480000000000 1
1.2319999933000 2.1338865834000 16.9480000000000 1
0.0000000000000 4.2677731668000 3.3480000000000 1
0.0000000000000 4.2677731668000 10.1480000000000 1
0.0000000000000 4.2677731668000 16.9480000000000 1
4.9279999732000 0.0000000000000 3.3480000000000 1
4.9279999732000 0.0000000000000 10.1480000000000 1
4.9279999732000 0.0000000000000 16.9480000000000 1
3.6959999799000 2.1338865834000 3.3480000000000 1
3.6959999799000 2.1338865834000 10.1480000000000 1
3.6959999799000 2.1338865834000 16.9480000000000 1
2.4639999866000 4.2677731668000 3.3480000000000 1
2.4639999866000 4.2677731668000 10.1480000000000 1
2.4639999866000 4.2677731668000 16.9480000000000 1
-0.0000122800000 1.4179793510000 0.0000000000000 1
-0.0000122800000 1.4179793510000 6.8000000000000 1
-0.0000122800000 1.4179793510000 13.6000000000000 1
-1.2320122733000 3.5518659344000 0.0000000000000 1
-1.2320122733000 3.5518659344000 6.8000000000000 1
-1.2320122733000 3.5518659344000 13.6000000000000 1
-2.4640122666000 5.6857525178000 0.0000000000000 1
-2.4640122666000 5.6857525178000 6.8000000000000 1
-2.4640122666000 5.6857525178000 13.6000000000000 1
2.4639877066000 1.4179793510000 0.0000000000000 1
2.4639877066000 1.4179793510000 6.8000000000000 1
2.4639877066000 1.4179793510000 13.6000000000000 1
1.2319877133000 3.5518659344000 0.0000000000000 1
1.2319877133000 3.5518659344000 6.8000000000000 1
1.2319877133000 3.5518659344000 13.6000000000000 1
-0.0000122800000 5.6857525178000 0.0000000000000 1
-0.0000122800000 5.6857525178000 6.8000000000000 1
-0.0000122800000 5.6857525178000 13.6000000000000 1
4.9279876932000 1.4179793510000 0.0000000000000 1
4.9279876932000 1.4179793510000 6.8000000000000 1
4.9279876932000 1.4179793510000 13.6000000000000 1
3.6959876999000 3.5518659344000 0.0000000000000 1
3.6959876999000 3.5518659344000 6.8000000000000 1
3.6959876999000 3.5518659344000 13.6000000000000 1
2.4639877066000 5.6857525178000 0.0000000000000 1
2.4639877066000 5.6857525178000 6.8000000000000 1
2.4639877066000 5.6857525178000 13.6000000000000 1
0.0000000000000 0.0000000000000 0.0000000000000 1
0.0000000000000 0.0000000000000 6.8000000000000 1
0.0000000000000 0.0000000000000 13.6000000000000 1
-1.2319999933000 2.1338865834000 0.0000000000000 1
-1.2319999933000 2.1338865834000 6.8000000000000 1
-1.2319999933000 2.1338865834000 13.6000000000000 1
-2.4639999866000 4.2677731668000 0.0000000000000 1
-2.4639999866000 4.2677731668000 6.8000000000000 1
-2.4639999866000 4.2677731668000 13.6000000000000 1
2.4639999866000 0.0000000000000 0.0000000000000 1
2.4639999866000 0.0000000000000 6.8000000000000 1
2.4639999866000 0.0000000000000 13.6000000000000 1
1.2319999933000 2.1338865834000 0.0000000000000 1
1.2319999933000 2.1338865834000 6.8000000000000 1
1.2319999933000 2.1338865834000 13.6000000000000 1
0.0000000000000 4.2677731668000 0.0000000000000 1
0.0000000000000 4.2677731668000 6.8000000000000 1
0.0000000000000 4.2677731668000 13.6000000000000 1
4.9279999732000 0.0000000000000 0.0000000000000 1
4.9279999732000 0.0000000000000 6.8000000000000 1
4.9279999732000 0.0000000000000 13.6000000000000 1
3.6959999799000 2.1338865834000 0.0000000000000 1
3.6959999799000 2.1338865834000 6.8000000000000 1
3.6959999799000 2.1338865834000 13.6000000000000 1
2.4639999866000 4.2677731668000 0.0000000000000 1
2.4639999866000 4.2677731668000 6.8000000000000 1
2.4639999866000 4.2677731668000 13.6000000000000 1
%endblock AtomicCoordinatesAndAtomicSpecies


DM.MixingWeight 0.01
AtomCoorFormatOut Ang

Kgrid_NoTRS  T
%block kgrid_MonkhorstPack
2	0	0	0.0
0	2	0	0.0	
0	0	2 	0.0
%endblock kgrid_MonkhorstPack

BlockSize 1
#ProcessorY 12
Diag.ParallelOverK   T
Diag.DivideAndConquer F

MeshCutoff   300 Ry

SCF.FreeE.Tolerance 1E-3  eV 
SCF.EDM.Tolerance 5E-3    eV
DM.Tolerance  1E-3
DM.Require.Energy.Convergence T
DM.NumberPulay 4

XC.Functional GGA
XC.Authors PBE

UseSaveData        F

SolutionMethod        diagon     
MD.TypeOfRun       NoseParrinelloRahman
#MD.Target-pressure   10.0 GPa
MD.Target-temperature   300 K
MD.Initial-temperature   0 K
MD.Initial.Time.Step      1
MD.Final.Time.Step        100000
MD.Length.Time.Step       1.0 fs
#MD.NumCGsteps        500 
#MD.MaxForceTol       0.02 eV/ang
#MD.VariableCell       T
#MD.MaxStressTol      0.1 GPa
#MD.TargetPressure    0.0 GPa
#MD.LengthTimeStep     0.5 fs
#MD.InitialTimeStep   1
#MD.FinalTimeStep     200000
#MD.InitialTemperature 300 K
#MD.TargetTemperature 300 K

WriteMDHistory T
WriteCoorStep T
WriteForces T

WriteCoorStep    T
WriteEigenValues F

WriteDM    F

MM.UnitsDistance Ang  # what this program prints out DO NOT CHANGE
MM.UnitsEnergy    eV  # what this program prints out DO NOT CHANGE
MM.Grimme.S6     0.75 # Grimme-paper for PBE (correct for your functional)
MM.Grimme.D     20.   # Grimme-paper (correct for your functional)
%block MM.Potentials
  1   1 Grimme     18.14      2.904 # C, 10.1002/jcc.20495
%endblock MM.Potentials

#%block ProjectedDensityOfStates
# -200.0  120.0  0.4  12800  eV
#%endblock ProjectedDensityOfStates
