SystemName graphite_scf
SystemLabel graphite_scf

NumberOfAtoms   36
NumberOfSpecies 1

%block ChemicalSpeciesLabel
1  6   C-gga
%endblock ChemicalSpeciesLabel

PAO.BasisSize  SZ
PAO.EnergyShift  10 meV

%block PS.Lmax
C-gga   2
%endblock PS.Lmax