SystemName ${name}_scf
SystemLabel ${name}_scf

NumberOfAtoms   ${n_atoms}
NumberOfSpecies 2

%block ChemicalSpeciesLabel
1  3   Li-gga
2  6   C-gga
%endblock ChemicalSpeciesLabel

PAO.BasisSize  ${basis}
PAO.EnergyShift  10 meV

%block PS.Lmax
C-gga   2
Li-gga  2
%endblock PS.Lmax