units                metal
atom_style           atomic
boundary             p p p
                     
read_data            data.test_2types

pair_style           mlip mlip.ini
pair_coeff           * *
                     
                     
                     
thermo		1
thermo_style custom step temp pe press pxx pyy pzz pxy pxz pyz lx ly lz vol                     
                     
                     
timestep             1
                     
                     
run                  0
