SystemName graphite_scf
SystemLabel graphite_scf

NumberOfAtoms   36
NumberOfSpecies 1

%block ChemicalSpeciesLabel
1  6   C-gga
%endblock ChemicalSpeciesLabel

PAO.BasisSize  SZ
PAO.EnergyShift  10 meV

%block PS.Lmax
C-gga   2
%endblock PS.Lmax

LatticeConstant 1.000000 Ang
%block LatticeVectors
	7.3920000000	0.0000000000	0.0000000000
	-3.6960000000	6.4016597848	0.0000000000
	0.0000000000	0.0000000000	8.7914100000
%endblock LatticeVectors

AtomicCoordinatesFormat Ang
%block AtomicCoordinatesAndAtomicSpecies
	0.00000000	0.00000000	2.19785250	1
	0.00000000	0.00000000	6.59355750	1
	-1.23200000	2.13388659	2.19785250	1
	-2.46400000	4.26777319	6.59355750	1
	2.46400000	4.26777319	2.19785250	1
	1.23200000	2.13388659	6.59355750	1
	2.46400000	0.00000000	2.19785250	1
	4.92800000	0.00000000	6.59355750	1
	2.46400000	0.00000000	6.59355750	1
	4.92800000	0.00000000	2.19785250	1
	2.46400000	4.26777319	6.59355750	1
	1.23200000	2.13388659	2.19785250	1
	-1.23200000	2.13388659	6.59355750	1
	-2.46400000	4.26777319	2.19785250	1
	0.00000000	4.26777319	2.19785250	1
	3.69600000	2.13388659	6.59355750	1
	3.69600000	2.13388659	2.19785250	1
	0.00000000	4.26777319	6.59355750	1
	0.00000000	1.42258964	2.19785250	1
	3.69600000	4.97907014	6.59355750	1
	2.46400123	5.69036496	2.19785250	1
	1.23199877	0.71129482	6.59355750	1
	-2.46400123	5.69036496	2.19785250	1
	6.16000123	0.71129482	6.59355750	1
	-1.23200000	3.55647624	2.19785250	1
	4.92800000	2.84518355	6.59355750	1
	1.23200123	3.55647837	2.19785250	1
	2.46399877	2.84518142	6.59355750	1
	-0.00000123	5.69036496	2.19785250	1
	3.69600123	0.71129482	6.59355750	1
	2.46400000	1.42258964	2.19785250	1
	1.23200000	4.97907014	6.59355750	1
	4.92800123	1.42259177	2.19785250	1
	-1.23200123	4.97906801	6.59355750	1
	3.69599877	3.55647837	2.19785250	1
	0.00000123	2.84518142	6.59355750	1
%endblock AtomicCoordinatesAndAtomicSpecies

