SystemName LiC6
SystemLabel LiC6

NumberOfAtoms   189
NumberOfSpecies 2

%block ChemicalSpeciesLabel   
1  3   Li-gga
2  6   C-gga
%endblock ChemicalSpeciesLabel

PAO.BasisSize  DZP
PAO.EnergyShift  10 meV       

%block PS.Lmax
C-gga   2
Li-gga  2
%endblock PS.Lmax

LatticeConstant 1.000000 Ang
%block LatticeVectors
    12.9483900070000004    0.0000000000000000    0.0000000000000000
    -6.4741964967000003   11.2136338221000003    0.0000000000000000
     0.0000000000000000    0.0000000000000000   11.0995807648000007
%endblock LatticeVectors

AtomicCoordinatesFormat Fractional
%block AtomicCoordinatesAndAtomicSpecies
0.000000023 -0.000000012 -0.000000009 1
0.000000023 -0.000000011 0.333333337 1
0.000000023 -0.000000011 0.666666655 1
0.000000104 0.333333328 -0.000000009 1
0.000000073 0.666666759 -0.000000009 1
0.666666856 0.666666691 -0.000000009 1
0.333333464 0.333333313 -0.000000009 1
0.333333326 0.000000031 -0.000000009 1
0.666666695 0.000000007 -0.000000009 1
0.000000103 0.333333328 0.333333337 1
0.000000073 0.666666759 0.666666655 1
0.666666856 0.666666691 0.333333337 1
0.333333464 0.333333314 0.666666655 1
0.333333327 0.000000031 0.333333336 1
0.666666695 0.000000007 0.666666655 1
0.000000073 0.666666759 0.333333336 1
0.000000104 0.333333328 0.666666655 1
0.333333464 0.333333313 0.333333337 1
0.666666856 0.666666691 0.666666655 1
0.666666695 0.000000007 0.333333337 1
0.333333327 0.000000031 0.666666656 1
0.333333497 0.666666706 -0.000000009 1
0.666666781 0.333333358 -0.000000009 1
0.333333497 0.666666706 0.333333337 1
0.666666781 0.333333358 0.666666655 1
0.666666781 0.333333357 0.333333337 1
0.333333497 0.666666706 0.666666655 1
0.000025470 0.111292427 0.166666670 2
-0.000025358 0.888707664 0.833333278 2
0.888723605 0.888723577 0.166666670 2
0.111276515 0.111276540 0.833333279 2
0.111292465 0.000025495 0.166666670 2
0.888707646 -0.000025394 0.833333279 2
-0.000025357 0.888707664 0.166666670 2
0.000025471 0.111292427 0.833333278 2
0.111276514 0.111276540 0.166666670 2
0.888723605 0.888723576 0.833333279 2
0.888707647 -0.000025392 0.166666670 2
0.111292465 0.000025496 0.833333279 2
0.000025471 0.111292428 0.500000001 2
-0.000025357 0.888707663 0.500000001 2
0.888723605 0.888723577 0.500000001 2
0.111276515 0.111276540 0.500000001 2
0.111292466 0.000025495 0.500000001 2
0.888707646 -0.000025393 0.500000001 2
0.000025541 0.444625759 0.166666670 2
-0.000025334 0.555374311 0.833333278 2
0.555390251 0.555390230 0.166666670 2
0.444609885 0.444609891 0.833333279 2
0.444625821 0.000025472 0.166666670 2
0.555374336 -0.000025426 0.833333278 2
-0.000025333 0.555374310 0.166666670 2
0.000025541 0.444625759 0.833333278 2
0.444609884 0.444609890 0.166666670 2
0.555390250 0.555390229 0.833333279 2
0.555374336 -0.000025425 0.166666670 2
0.444625821 0.000025473 0.833333279 2
0.000025540 0.444625761 0.500000001 2
-0.000025334 0.555374311 0.500000001 2
0.555390251 0.555390229 0.500000001 2
0.444609885 0.444609891 0.500000001 2
0.444625822 0.000025473 0.500000001 2
0.555374335 -0.000025425 0.500000001 2
0.000025587 0.777959113 0.166666670 2
-0.000025421 0.222040979 0.833333278 2
0.222056866 0.222056877 0.166666670 2
0.777943275 0.777943252 0.833333279 2
0.777959129 0.000025514 0.166666670 2
0.222041002 -0.000025420 0.833333278 2
-0.000025420 0.222040979 0.166666670 2
0.000025588 0.777959113 0.833333279 2
0.777943274 0.777943251 0.166666670 2
0.222056865 0.222056876 0.833333279 2
0.222041002 -0.000025419 0.166666670 2
0.777959129 0.000025514 0.833333279 2
0.000025587 0.777959114 0.500000001 2
-0.000025420 0.222040979 0.500000001 2
0.222056866 0.222056877 0.500000001 2
0.777943275 0.777943251 0.500000001 2
0.777959130 0.000025514 0.500000001 2
0.222041001 -0.000025419 0.500000001 2
0.333358831 0.111292407 0.166666670 2
0.666641296 0.888707671 0.833333278 2
0.888723544 0.222056856 0.166666670 2
0.111276641 0.777943218 0.833333279 2
0.777959175 0.666692177 0.166666670 2
0.222040980 0.333307944 0.833333280 2
0.666641297 0.888707671 0.166666670 2
0.333358832 0.111292408 0.833333278 2
0.111276641 0.777943216 0.166666670 2
0.888723543 0.222056855 0.833333279 2
0.222040980 0.333307946 0.166666670 2
0.777959174 0.666692178 0.833333279 2
0.111292446 0.333358829 0.833333279 2
0.888707732 0.666641274 0.166666670 2
0.222056967 0.888723543 0.833333279 2
0.777943204 0.111276541 0.166666670 2
0.666692225 0.777959138 0.833333279 2
0.333307921 0.222040978 0.166666670 2
0.888707732 0.666641273 0.833333279 2
0.111292446 0.333358828 0.166666670 2
0.777943206 0.111276541 0.833333279 2
0.222056968 0.888723543 0.166666670 2
0.333307920 0.222040978 0.833333278 2
0.666692224 0.777959138 0.166666670 2
0.333358831 0.111292409 0.500000001 2
0.666641297 0.888707670 0.500000001 2
0.888723544 0.222056856 0.500000001 2
0.111276641 0.777943217 0.500000001 2
0.777959176 0.666692178 0.500000001 2
0.222040979 0.333307945 0.500000001 2
0.111292447 0.333358828 0.500000001 2
0.888707731 0.666641274 0.500000001 2
0.222056967 0.888723544 0.500000001 2
0.777943205 0.111276541 0.500000001 2
0.666692224 0.777959139 0.500000001 2
0.333307921 0.222040978 0.500000001 2
0.333358834 0.444625782 0.166666670 2
0.666641310 0.555374333 0.833333278 2
0.555390275 0.888723555 0.166666670 2
0.444609880 0.111276509 0.833333279 2
0.111292525 0.666692150 0.166666670 2
0.888707676 0.333307910 0.833333279 2
0.666641311 0.555374333 0.166666671 2
0.333358835 0.444625782 0.833333278 2
0.444609879 0.111276508 0.166666670 2
0.555390274 0.888723554 0.833333279 2
0.888707676 0.333307911 0.166666670 2
0.111292525 0.666692152 0.833333280 2
0.444625784 0.333358815 0.833333279 2
0.555374374 0.666641301 0.166666670 2
0.888723618 0.555390200 0.833333279 2
0.111276574 0.444609885 0.166666670 2
0.666692173 0.111292410 0.833333278 2
0.333307998 0.888707646 0.166666670 2
0.555374374 0.666641300 0.833333279 2
0.444625784 0.333358814 0.166666670 2
0.111276576 0.444609886 0.833333279 2
0.888723619 0.555390201 0.166666670 2
0.333307997 0.888707646 0.833333278 2
0.666692172 0.111292411 0.166666670 2
0.333358835 0.444625783 0.500000001 2
0.666641311 0.555374332 0.500000001 2
0.555390275 0.888723555 0.500000001 2
0.444609879 0.111276509 0.500000001 2
0.111292526 0.666692151 0.500000001 2
0.888707674 0.333307911 0.500000001 2
0.444625785 0.333358814 0.500000001 2
0.555374373 0.666641300 0.500000001 2
0.888723618 0.555390201 0.500000001 2
0.111276575 0.444609885 0.500000001 2
0.666692172 0.111292412 0.500000001 2
0.333307998 0.888707646 0.500000001 2
0.333358923 0.777959118 0.166666670 2
0.666641282 0.222040961 0.833333279 2
0.222056917 0.555390211 0.166666670 2
0.777943261 0.444609864 0.833333279 2
0.444625834 0.666692185 0.166666670 2
0.555374341 0.333307912 0.833333278 2
0.666641283 0.222040962 0.166666670 2
0.333358924 0.777959118 0.833333279 2
0.777943260 0.444609864 0.166666670 2
0.222056916 0.555390210 0.833333279 2
0.555374341 0.333307913 0.166666670 2
0.444625834 0.666692186 0.833333279 2
0.777959145 0.333358800 0.833333280 2
0.222041059 0.666641271 0.166666670 2
0.555390234 0.222056840 0.833333279 2
0.444609960 0.777943244 0.166666670 2
0.666692203 0.444625755 0.833333278 2
0.333307958 0.555374338 0.166666670 2
0.222041059 0.666641270 0.833333279 2
0.777959145 0.333358799 0.166666670 2
0.444609961 0.777943245 0.833333279 2
0.555390235 0.222056841 0.166666670 2
0.333307957 0.555374338 0.833333277 2
0.666692202 0.444625755 0.166666671 2
0.333358923 0.777959119 0.500000001 2
0.666641283 0.222040961 0.500000001 2
0.222056917 0.555390211 0.500000001 2
0.777943260 0.444609864 0.500000001 2
0.444625836 0.666692185 0.500000001 2
0.555374340 0.333307913 0.500000001 2
0.777959146 0.333358800 0.500000001 2
0.222041058 0.666641271 0.500000001 2
0.555390234 0.222056840 0.500000001 2
0.444609961 0.777943245 0.500000001 2
0.666692202 0.444625756 0.500000001 2
0.333307958 0.555374337 0.500000001 2
%endblock AtomicCoordinatesAndAtomicSpecies


Kgrid_NoTRS  T
%block kgrid_MonkhorstPack
2       0       0       0.0
0       2       0       0.0
0       0       2       0.0
%endblock kgrid_MonkhorstPack

BlockSize 1
Diag.ParallelOverK   T
Diag.DivideAndConquer F

MeshCutoff   400 Ry

DM.Tolerance  1E-5
DM.Require.Energy.Convergence T
DM.NumberPulay 4

UseSaveData        F

MD.TypeOfRun       CG
MD.VariableCell    F
MD.NumCGsteps      00
MD.MaxCGDispl      0.200000 Bohr
MD.MaxStressTol    1.000000 GPa
MD.MaxForceTol     0.010000 eV/Ang

WriteMDHistory T
WriteCoorStep T
WriteForces T

WriteCoorStep    T
WriteEigenValues T

WriteDM    F

MM.UnitsDistance Ang  # what this program prints out DO NOT CHANGE
MM.UnitsEnergy    eV  # what this program prints out DO NOT CHANGE
MM.Grimme.S6     0.75 # Grimme-paper for PBE (correct for your functional)
MM.Grimme.D     20.   # Grimme-paper (correct for your functional)
%block MM.Potentials
  1   1 Grimme     16.69      1.650 # Li, 10.1002/jcc.20495
  1   2 Grimme     17.40      2.277 # Li / C
  2   2 Grimme     18.14      2.904 # C, 10.1002/jcc.20495
%endblock MM.Potentials