units                real
atom_style           full
boundary             p p p
dielectric           1
special_bonds        lj/coul 0.0 0.0 1.0
                     
pair_style           lj/charmm/coul/charmm 13 14.00000
bond_style           harmonic
angle_style          hybrid cosine/periodic cosine/squared
dihedral_style       harmonic
improper_style       none
kspace_style         none
                     
read_data            data.test
                     
                     
                     
pair_modify          mix geometric
neighbor             2.0 multi
neigh_modify         every 2 delay 4 check yes
thermo_style         multi
thermo_modify        line multi format float %14.6f flush yes
                     
angle_coeff          1 cosine/periodic 12.85034 -1 3 # C_2 C_2 Li
angle_coeff          2 cosine/squared 57.08304 109.47120 # C_R C_3 Li
angle_coeff          3 cosine/squared 56.78196 109.47120 # Li C_3 C_3
angle_coeff          4 cosine/squared 57.05149 109.47120 # C_2 C_3 Li
angle_coeff          5 cosine/periodic 12.85677 -1 3 # C_R C_2 Li
angle_coeff          6 cosine/periodic 32.84693 -1 3 # C_2 C_2 C_R
angle_coeff          7 cosine/squared 150.73457 109.47120 # C_2 C_3 C_3
angle_coeff          8 cosine/periodic 32.80060 -1 3 # C_2 C_2 C_2
angle_coeff          9 cosine/periodic 32.41556 -1 3 # C_2 C_2 C_3
angle_coeff          10 cosine/periodic 32.04676 -1 3 # C_3 C_2 C_3
angle_coeff          11 cosine/squared 148.75434 109.47120 # C_3 C_3 C_3
angle_coeff          12 cosine/periodic 33.72622 -1 3 # C_R C_R C_3
angle_coeff          13 cosine/squared 150.97295 109.47120 # C_R C_3 C_3
angle_coeff          14 cosine/squared 153.05731 109.47120 # C_2 C_3 C_R
angle_coeff          15 cosine/periodic 34.17083 -1 3 # C_2 C_R C_R
angle_coeff          16 cosine/squared 152.80758 109.47120 # C_2 C_3 C_2
angle_coeff          17 cosine/periodic 35.65005 -1 3 # C_R C_R C_R
angle_coeff          18 cosine/periodic 32.89351 -1 3 # C_R C_2 C_R
angle_coeff          19 cosine/squared 153.30844 109.47120 # C_R C_3 C_R
                     
variable             input string in.test
variable             sname string test
                     
                     
timestep             1
                     
print                .
print                ==========================================
print                "500 steps CG Minimization"
print                ==========================================
print                .
                     
dump                 1 all custom 25 ${sname}.min.lammps id type xu yu zu vx vy vz
thermo               10
min_style            sd
minimize             1.0e-4 1.0e-4 500 5000
min_style            cg
minimize             1.0e-4 1.0e-4 500 5000
#now                 minimize the entire system
minimize             1.0e-4 1.0e-4 500 5000
undump               1
                     
                     
print                .
print                =====================================
print                "NVT dynamics to heat system"
print                =====================================
print                .
                     
reset_timestep       0
                     
velocity             all create 0.0 12345678 dist uniform
thermo               100
dump                 1 all custom 1000 ${sname}.heat.lammpstrj id type xu yu zu vx vy vz
fix                  4 all nvt temp 1.0 ${rtemp} 100.0
run                  10000
unfix                4
undump               1
                     
print                .
print                ================================================
print                "NPT dynamics with an isotropic pressure of 1atm."
print                ================================================
print                .
                     
fix                  2 all npt temp ${rtemp} ${rtemp} 100.0 iso 1.0 1.0 2000.0
dump                 1 all custom 5000 ${sname}.${rtemp}K.npt.lammps id type xu yu zu vx vy vz
variable             latx equal lx
variable             laty equal ly
variable             latz equal lz
fix                  lxavg all ave/time 1 250000 250000 v_latx
fix                  lyavg all ave/time 1 250000 250000 v_laty
fix                  lzavg all ave/time 1 250000 250000 v_latz
run                  1000000 # run for 15 ns
variable             xavg equal f_lxavg
variable             yavg equal f_lyavg
variable             zavg equal f_lzavg
undump               1
unfix                2
print                "current cell: ${latx} ${laty} ${latz} cell avgs: ${xavg} ${yavg} ${zavg}"
print                "deforming cell"
fix                  2 all nvt temp ${rtemp} ${rtemp} 100.0 nreset 10000
dump                 1 all custom 5000 ${sname}.${rtemp}K.deform.lammps id type xu yu zu vx vy vz
fix                  1 all deform 100 x final 0 ${xavg} y final 0 ${yavg} z final 0 ${zavg} units box
undump               1
unfix                lxavg
unfix                lyavg
unfix                lzavg
run                  100000
unfix                1
unfix                2
fix                  2 all nvt temp ${rtemp} ${rtemp} 100.0 nreset 10000
dump                 1 all custom 5000 ${sname}.${rtemp}K.nvt.lammps id type xu yu zu vx vy vz
run                  500000
undump               1
unfix                2
reset_timestep       1000000
                     
print                .
print                ================================================
print                "NVT production dynamics "
print                ================================================
print                .
                     
fix                  2 all nvt temp ${rtemp} ${rtemp} 100.0 tloop 10 ploop 10
restart              50000 ${sname}.${rtemp}K.*.restart
dump                 1 all custom 1000 ${sname}.${rtemp}K.prod.lammps id type xu yu zu vx vy vz
run                  5000000 # run for 15 ns
unfix                2
undump               1
