units                real
atom_style           full
boundary             p p p
dielectric           1
special_bonds        lj/coul 0.0 0.0 1.0
                     
pair_style           lj/charmm/coul/charmm 13 14.00000
bond_style           harmonic
angle_style          hybrid cosine/periodic cosine/squared
dihedral_style       harmonic
improper_style       none
kspace_style         none
                     
read_data            data.test
                     
                     
                     
pair_modify          mix geometric
neighbor             2.0 multi
neigh_modify         every 2 delay 4 check yes
thermo_style         multi
thermo_modify        line multi format float %14.6f flush yes
                     
angle_coeff          1 cosine/periodic 12.85034 -1 3 # C_2 C_2 Li
angle_coeff          2 cosine/squared 57.08304 109.47120 # C_R C_3 Li
angle_coeff          3 cosine/squared 56.78196 109.47120 # Li C_3 C_3
angle_coeff          4 cosine/squared 57.05149 109.47120 # C_2 C_3 Li
angle_coeff          5 cosine/periodic 12.85677 -1 3 # C_R C_2 Li
angle_coeff          6 cosine/periodic 32.84693 -1 3 # C_2 C_2 C_R
angle_coeff          7 cosine/squared 150.73457 109.47120 # C_2 C_3 C_3
angle_coeff          8 cosine/periodic 32.80060 -1 3 # C_2 C_2 C_2
angle_coeff          9 cosine/periodic 32.41556 -1 3 # C_2 C_2 C_3
angle_coeff          10 cosine/periodic 32.04676 -1 3 # C_3 C_2 C_3
angle_coeff          11 cosine/squared 148.75434 109.47120 # C_3 C_3 C_3
angle_coeff          12 cosine/periodic 33.72622 -1 3 # C_R C_R C_3
angle_coeff          13 cosine/squared 150.97295 109.47120 # C_R C_3 C_3
angle_coeff          14 cosine/squared 153.05731 109.47120 # C_2 C_3 C_R
angle_coeff          15 cosine/periodic 34.17083 -1 3 # C_2 C_R C_R
angle_coeff          16 cosine/squared 152.80758 109.47120 # C_2 C_3 C_2
angle_coeff          17 cosine/periodic 35.65005 -1 3 # C_R C_R C_R
angle_coeff          18 cosine/periodic 32.89351 -1 3 # C_R C_2 C_R
angle_coeff          19 cosine/squared 153.30844 109.47120 # C_R C_3 C_R
                     
variable             input string in.test
variable             sname string test
                     
                     
timestep             1
                     
                     
run                  0
