SystemName LiC6
SystemLabel LiC6

NumberOfAtoms   189
NumberOfSpecies 2

%block ChemicalSpeciesLabel
1  3   Li-gga
2  6   C-gga
%endblock ChemicalSpeciesLabel

PAO.BasisSize  DZP
PAO.EnergyShift  10 meV

%block PS.Lmax
C-gga   2
Li-gga  2
%endblock PS.Lmax