SystemName LiC12_scf
SystemLabel LiC12_scf

NumberOfAtoms   13
NumberOfSpecies 2

%block ChemicalSpeciesLabel
1  3   Li-gga
2  6   C-gga
%endblock ChemicalSpeciesLabel

PAO.BasisSize  DZP
PAO.EnergyShift  10 meV

%block PS.Lmax
C-gga   2
Li-gga  2
%endblock PS.Lmax

LatticeConstant 1.000000 Ang
%block LatticeVectors
	4.2686000000	0.0000000000	0.0000000000
	-2.1343000000	3.6967160386	0.0000000000
	0.0000000000	0.0000000000	6.3206100000
%endblock LatticeVectors

AtomicCoordinatesFormat Ang
%block AtomicCoordinatesAndAtomicSpecies
	0.00000000	0.00000000	0.00000000	2
	1.42144380	0.00000000	1.58015250	1
	2.84715620	0.00000000	4.74045750	1
	-0.71072190	1.23100644	1.58015250	1
	-1.42357810	2.46570960	4.74045750	1
	1.42357810	2.46570960	1.58015250	1
	0.71072190	1.23100644	4.74045750	1
	2.84715620	0.00000000	1.58015250	1
	1.42144380	0.00000000	4.74045750	1
	-1.42357810	2.46570960	1.58015250	1
	-0.71072190	1.23100644	4.74045750	1
	0.71072190	1.23100644	1.58015250	1
	1.42357810	2.46570960	4.74045750	1
%endblock AtomicCoordinatesAndAtomicSpecies

Kgrid_NoTRS  T
%block kgrid_MonkhorstPack
2       0       0       0.0
0       2       0       0.0
0       0       2       0.0
%endblock kgrid_MonkhorstPack

AtomCoorFormatOut Ang

BlockSize 1
#ProcessorY 12
Diag.ParallelOverK   T
Diag.DivideAndConquer F

MeshCutoff   300 Ry
SCF.FreeE.Tolerance 1E-3 eV
SCF.EDM.Tolerance   5E-3 eV
DM.Tolerance  1E-3
DM.Require.Energy.Convergence T
DM.NumberPulay 4

XC.Functional GGA
XC.Authors    PBE

UseSaveData        F

MD.TypeOfRun       CG
MD.VariableCell    F
MD.NumCGsteps      00
MD.MaxCGDispl      0.200000 Bohr
MD.MaxStressTol    1.000000 GPa
MD.MaxForceTol     0.010000 eV/Ang

WriteMDHistory T
WriteCoorStep T
WriteForces T

WriteCoorStep    T
WriteEigenValues T

WriteDM    F

MM.UnitsDistance Ang  # what this program prints out DO NOT CHANGE
MM.UnitsEnergy    eV  # what this program prints out DO NOT CHANGE
MM.Grimme.S6     0.75 # Grimme-paper for PBE (correct for your functional)
MM.Grimme.D     20.   # Grimme-paper (correct for your functional)
%block MM.Potentials
  1   1 Grimme     16.69      1.650 # Li, 10.1002/jcc.20495
  1   2 Grimme     17.40      2.277 # Li / C
  2   2 Grimme     18.14      2.904 # C, 10.1002/jcc.20495
%endblock MM.Potentials

#%block ProjectedDensityOfStates
# -200.0  120.0  0.4  12800  eV
#%endblock ProjectedDensityOfStates